NAME: Test TSP file problem
TYPE: TSP
COMMENT: Test TSP file problem with full Matrix distance or duration
DIMENSION: 5
EDGE_WEIGHT_TYPE: EXPLICIT
EDGE_WEIGHT_FORMAT: FULL_MATRIX
DISPLAY_DATA_TYPE: TWOD_DISPLAY
EDGE_WEIGHT_SECTION 
0.0 83783.4 131789.7 87413.2 174693.4 
84455.4 0.0 200037.5 129244.2 131630.7 
132558.4 200107.2 0.0 96793.7 188342.2 
88492.9 129148.5 96813.6 0.0 90089.6 
176052.2 131997.5 187164.3 90368.7 0.0 
DISPLAY_DATA_SECTION 
1 44.36509667482153 6.602783203125
2 44.28453670601888 7.261962890625
3 43.86027718467949 6.0479736328125
4 43.95525928989669 6.77581787109375
5 43.73538317799622 7.42401123046875
EOF